(set-info :smt-lib-version 2.6)
(set-logic QF_UFLRA)
(set-info :source |
MathSat group

|)
(set-info :category "random")
(set-info :status sat)
(declare-fun x0 () Real)
(declare-fun x1 () Real)
(declare-fun x2 () Real)
(declare-fun x3 () Real)
(declare-fun x4 () Real)
(declare-fun x5 () Real)
(declare-fun x6 () Real)
(declare-fun x7 () Real)
(declare-fun x8 () Real)
(declare-fun x9 () Real)
(declare-fun x10 () Real)
(declare-fun x11 () Real)
(declare-fun x12 () Real)
(declare-fun x13 () Real)
(declare-fun x14 () Real)
(declare-fun x15 () Real)
(declare-fun x16 () Real)
(declare-fun x17 () Real)
(declare-fun x18 () Real)
(declare-fun x19 () Real)
(declare-fun x20 () Real)
(declare-fun x21 () Real)
(declare-fun x22 () Real)
(declare-fun x23 () Real)
(declare-fun x24 () Real)
(declare-fun x25 () Real)
(declare-fun x26 () Real)
(declare-fun x27 () Real)
(declare-fun x28 () Real)
(declare-fun x29 () Real)
(declare-fun x30 () Real)
(declare-fun x31 () Real)
(declare-fun x32 () Real)
(declare-fun x33 () Real)
(declare-fun x34 () Real)
(declare-fun x35 () Real)
(declare-fun x36 () Real)
(declare-fun x37 () Real)
(declare-fun x38 () Real)
(declare-fun x39 () Real)
(declare-fun f0_1 (Real) Real)
(declare-fun f0_2 (Real Real) Real)
(declare-fun f0_3 (Real Real Real) Real)
(declare-fun f0_4 (Real Real Real Real) Real)
(declare-fun P0 () Bool)
(declare-fun P1 () Bool)
(declare-fun P2 () Bool)
(declare-fun P3 () Bool)
(declare-fun P4 () Bool)
(declare-fun P5 () Bool)
(declare-fun P6 () Bool)
(declare-fun P7 () Bool)
(declare-fun P8 () Bool)
(declare-fun P9 () Bool)
(declare-fun P10 () Bool)
(declare-fun P11 () Bool)
(declare-fun P12 () Bool)
(declare-fun P13 () Bool)
(declare-fun P14 () Bool)
(declare-fun P15 () Bool)
(declare-fun P16 () Bool)
(declare-fun P17 () Bool)
(declare-fun P18 () Bool)
(declare-fun P19 () Bool)
(declare-fun P20 () Bool)
(declare-fun P21 () Bool)
(declare-fun P22 () Bool)
(declare-fun P23 () Bool)
(declare-fun P24 () Bool)
(declare-fun P25 () Bool)
(declare-fun P26 () Bool)
(declare-fun P27 () Bool)
(declare-fun P28 () Bool)
(declare-fun P29 () Bool)
(declare-fun P30 () Bool)
(declare-fun P31 () Bool)
(declare-fun P32 () Bool)
(declare-fun P33 () Bool)
(declare-fun P34 () Bool)
(declare-fun P35 () Bool)
(declare-fun P36 () Bool)
(declare-fun P37 () Bool)
(declare-fun P38 () Bool)
(declare-fun P39 () Bool)
(assert (let ((?v_45 (<= (+ (- (* 35 x18) (* 7 x21)) (* 18 x5)) 34)) (?v_51 (<= (- (- (* 19 x24) (* 47 x14)) (* 49 x36)) 51)) (?v_85 (<= (- (- (* 6 x31) (* 32 x33)) (* 56 x17)) 7)) (?v_27 (< (- (- (* 26 x2) (* 30 x23)) (* 40 x39)) 41)) (?v_84 (= (- (- (* 37 x8) (* 50 x25)) (* 34 x18)) 47)) (?v_5 (< (- (- (* 15 x18) (* 56 x37)) (* 12 x25)) 14)) (?v_147 (< (- (- (* 45 x22) (* 22 x7)) (* 33 x33)) 52)) (?v_17 (* 51 x39))) (let ((?v_170 (< (- (+ ?v_17 (* 35 x10)) (* 41 x1)) 46)) (?v_138 (< (- (+ (* 33 x10) (* 51 x25)) (* 44 x2)) 15)) (?v_48 (< (+ (- (* 56 x2) (* 25 x13)) (* 28 x12)) 22)) (?v_106 (< (+ (- (* 6 x3) (* 16 x24)) (* 28 x25)) 25)) (?v_129 (<= (- (- (* 21 x2) (* 42 x20)) (* 11 x28)) 32)) (?v_90 (distinct (f0_2 x14 x5) (f0_1 x8))) (?v_156 (distinct (f0_2 x32 x33) x30)) (?v_25 (f0_1 x16))) (let ((?v_102 (distinct x30 ?v_25)) (?v_61 (= (f0_1 x24) x11)) (?v_75 (= x28 (f0_1 x29))) (?v_193 (= (f0_1 x15) x33)) (?v_97 (distinct (f0_2 x26 x36) x24)) (?v_189 (distinct (f0_2 x19 x15) x32)) (?v_7 (f0_1 x37))) (let ((?v_22 (distinct ?v_7 (f0_2 x7 x37))) (?v_31 (= x4 (f0_1 x26))) (?v_176 (distinct (f0_2 x11 x22) x18)) (?v_36 (f0_1 x39))) (let ((?v_43 (= ?v_36 x5)) (?v_180 (f0_2 x13 x1))) (let ((?v_39 (distinct ?v_180 x20)) (?v_182 (distinct x29 ?v_180)) (?v_148 (distinct x12 (f0_2 x35 x15))) (?v_96 (= (f0_2 x5 x4) x25)) (?v_20 (distinct x15 x33)) (?v_9 (distinct (f0_2 x27 x36) (f0_1 x25))) (?v_66 (distinct x34 ?v_25)) (?v_64 (distinct x39 (f0_2 x14 x2))) (?v_50 (distinct x27 x19)) (?v_145 (distinct x10 (f0_2 x17 x18))) (?v_0 (= ?v_7 x31)) (?v_34 (distinct (f0_2 x13 x0) (f0_1 x9))) (?v_114 (distinct (f0_2 x8 x7) (f0_2 x3 x30))) (?v_6 (f0_1 x27))) (let ((?v_127 (= ?v_6 (f0_1 x32))) (?v_133 (distinct (f0_2 x29 x28) x12)) (?v_18 (f0_1 x22))) (let ((?v_86 (= x31 ?v_18)) (?v_23 (distinct (f0_1 x18) (f0_2 x2 x28))) (?v_52 (= x6 x26)) (?v_57 (= (f0_2 x25 x33) ?v_18)) (?v_68 (= x30 x19)) (?v_12 (distinct x19 ?v_18)) (?v_179 (= (f0_1 x28) (f0_2 x19 x37))) (?v_55 (distinct (f0_2 x15 x19) (f0_1 x23))) (?v_60 (= ?v_25 (f0_2 x6 x23))) (?v_38 (distinct x33 (f0_2 x38 x24))) (?v_139 (= ?v_36 (f0_1 x17))) (?v_162 (distinct (f0_1 x38) (f0_1 x7))) (?v_109 (= ?v_6 (f0_1 x35))) (?v_54 (not ?v_193)) (?v_8 (not ?v_31)) (?v_121 (not P37)) (?v_115 (not P29)) (?v_10 (not P22))) (let ((?v_200 (not ?v_162)) (?v_11 (not ?v_34)) (?v_1 (not ?v_0)) (?v_19 (not P39)) (?v_4 (not P0)) (?v_131 (not ?v_127)) (?v_21 (not ?v_170)) (?v_72 (not P14)) (?v_103 (not P13)) (?v_46 (not ?v_22)) (?v_15 (not ?v_96)) (?v_32 (not ?v_75)) (?v_122 (not ?v_5)) (?v_112 (not P11)) (?v_35 (not P30)) (?v_87 (not ?v_12)) (?v_140 (not P4)) (?v_49 (not P2)) (?v_100 (not P35)) (?v_98 (not P15)) (?v_47 (not ?v_57)) (?v_76 (not ?v_45)) (?v_167 (not ?v_61)) (?v_26 (not ?v_20)) (?v_28 (not ?v_86)) (?v_181 (not ?v_23)) (?v_158 (not ?v_176)) (?v_62 (not P20)) (?v_107 (not P28)) (?v_42 (not P9)) (?v_29 (not ?v_27)) (?v_41 (not P3)) (?v_83 (not P1)) (?v_99 (not ?v_139)) (?v_153 (not ?v_179)) (?v_175 (not ?v_39)) (?v_155 (not P18)) (?v_73 (not ?v_114)) (?v_95 (not P21)) (?v_58 (not P17)) (?v_67 (not P12)) (?v_59 (not ?v_48)) (?v_150 (not ?v_148)) (?v_63 (not ?v_50)) (?v_69 (not ?v_52)) (?v_91 (not P16)) (?v_130 (not P36)) (?v_184 (not ?v_147)) (?v_120 (not P5)) (?v_101 (not ?v_64)) (?v_124 (not P27)) (?v_149 (not ?v_51)) (?v_77 (not ?v_66)) (?v_190 (not ?v_97)) (?v_194 (not P7)) (?v_79 (not P38)) (?v_117 (not P6)) (?v_118 (not P19)) (?v_89 (not ?v_60)) (?v_108 (not ?v_90)) (?v_142 (not P25)) (?v_111 (not ?v_55)) (?v_125 (not ?v_9)) (?v_137 (not ?v_109)) (?v_160 (not P34)) (?v_146 (not ?v_43)) (?v_173 (not P8)) (?v_168 (not ?v_129)) (?v_143 (not P24)) (?v_135 (not ?v_133)) (?v_191 (not P26)) (?v_144 (not ?v_68)) (?v_171 (not ?v_156)) (?v_159 (not ?v_145)) (?v_154 (not ?v_84)) (?v_188 (not ?v_102)) (?v_172 (not ?v_85))) (let ((?v_187 (or P0 ?v_125)) (?v_198 (not ?v_138)) (?v_185 (or ?v_135 ?v_145)) (?v_197 (not ?v_38)) (?v_195 (not ?v_106)) (?v_204 (not P32)) (?v_199 (not P31)) (?v_202 (not ?v_182)) (?v_203 (not P33)) (?v_33 (< (+ (* 46 x12) (* 45 x39) (* 12 x33)) 39)) (?v_40 (< (+ (* 45 x8) (* 45 x11) (* 55 x23)) 56))) (let ((?v_70 (not ?v_33)) (?v_126 (<= (+ (* 44 x5) (* 31 x17) (* 53 x37)) 3))) (let ((?v_166 (not ?v_126)) (?v_141 (not ?v_40)) (?v_37 (<= (+ (- (* (- 8) x22) (* 32 x36)) (* 8 x16)) (- 23))) (?v_71 (< (- (- (* 12 x4) (* 7 x23)) (* 30 x32)) (- 13)))) (let ((?v_65 (not ?v_71)) (?v_119 (<= (+ (- (* (- 30) x27) (* 15 x21)) (* 21 x31)) (- 2)))) (let ((?v_186 (not ?v_119)) (?v_3 (< (+ (- 0 (* 18 x34)) x28) (- 4)))) (let ((?v_92 (not ?v_3)) (?v_2 (< (+ (* (- 6) x6) (* 25 x37) (* 34 x14)) (- 4))) (?v_56 (< (+ (- (* (- 50) x21) (* 47 x37)) (* 48 x26)) 23))) (let ((?v_151 (not ?v_56)) (?v_44 (distinct (- (+ (* (- 48) x32) (* 6 x21)) (* 23 x21)) (- 34))) (?v_74 (< (+ (- (* 11 x12) (* 19 x31)) (* 17 x11)) (- 58))) (?v_14 (distinct (+ (- (* 29 x22) (* 19 x36)) (* 31 x29)) (- 8))) (?v_24 (<= (- (+ (* (- 41) x24) (* 8 x5)) (* 39 x7)) 48)) (?v_80 (< (+ (- (* (- 28) x29) (* 25 x39)) (* 11 x5)) 24)) (?v_16 (<= (- (- (* (- 14) x31) (* 19 x28)) (* 45 x1)) (- 7)))) (let ((?v_13 (not ?v_16)) (?v_110 (= (- (+ (* (- 41) x1) (* 22 x22)) (* 8 x6)) (- 26))) (?v_53 (= (+ (- (* 35 x11) ?v_17) (* 32 x10)) (- 19))) (?v_88 (<= (+ (* 35 x36) (* 52 x16)) (- 30))) (?v_116 (< (- (+ (* (- 3) x7) (* 5 x4)) (* 23 x23)) (- 35))) (?v_30 (< (- (+ (* 5 x5) (* 56 x36)) (* 41 x28)) (- 37))) (?v_78 (distinct (+ (- (* (- 57) x12) (* 39 x33)) (* 16 x26)) 7)) (?v_169 (not ?v_24)) (?v_136 (<= (+ (* (- 30) x22) (* 11 x16) (* 49 x1)) (- 9)))) (let ((?v_105 (not ?v_136)) (?v_165 (not ?v_30)) (?v_104 (not ?v_37)) (?v_81 (not ?v_44)) (?v_178 (not ?v_53)) (?v_94 (<= (+ (* 46 x35) (* 9 x28) (* 40 x15)) (- 50))) (?v_134 (<= (- (- (* 17 x31) (* 2 x32)) (* 41 x10)) (- 28))) (?v_93 (not ?v_74)) (?v_82 (not ?v_78)) (?v_132 (< (- (+ (* (- 13) x22) (* 49 x3)) (* 46 x16)) (- 42))) (?v_164 (< (+ (- (* 10 x21) 0) (* 13 x28)) (- 49)))) (let ((?v_157 (not ?v_164)) (?v_113 (< (- (+ (* (- 16) x22) (* 53 x8)) (* 19 x27)) (- 26)))) (let ((?v_123 (not ?v_113)) (?v_177 (not ?v_110)) (?v_174 (not ?v_14)) (?v_163 (<= (+ (- (* 18 x4) (* 35 x39)) (* 13 x10)) (- 18))) (?v_128 (not ?v_2)) (?v_152 (not ?v_88)) (?v_161 (not ?v_134)) (?v_201 (not ?v_132)) (?v_196 (not ?v_80))) (let ((?v_183 (not ?v_163)) (?v_192 (not ?v_116))) (and (and (and (and (and (and (and (and (and (and (and (and (and (and (and (and (and (and (and (and (and (and (and (and (and (and (and (and (and (and (and (and (and (and (and (and (and (and (and (and (and (and (and (and (and (and (and (and (and (and (and (and (and (and (and (and (and (and (and (and (and (and (and (and (and (and (and (and (and (and (and (and (and (and (and (and (and (and (and (and (and (and (and (and (and (and (and (and (and (and (and (and (and (and (and (and (and (and (and (and (and (and (and (and (and (and (and (and (and (and (and (and (and (and (and (and (and (and (and (and (and (and (and (and (and (and (and (and (and (and (and (and (and (and (and (and (and (and (and (and (and (and (and (and (and (and (and (and (and (and (and (and (and (and (and (and (and (and (and (and (and (and (and (and (and (and (and (and (and (and (and (and (and (and (and (and (and (and (and (and (and (and (and (and (and (and (and (and (and (and (and (and (and (and (and (and (and (and (and (and (and (and (and (and (and (and (and (and (and (and (and (and (and (and (and (and (and (and (and (and (and (and (and (and (and (and (and (and (and (and (and (and (and (and (and (and (and (and (and (and (and (and (and (and (and (and (and (and (and (and (and (and (and (and (and (and (and (and (and (and (and (and (and (and (and (and (and (and (and (and (and (and (and (and (and (and (and (and (and (and (and (and (and (and (and (and (and (and (and (and (and (and (and (and (and (and (and (and (and (and (and (and (and (and (and (and (and (and (and (and (and (and (and (and (and (and (and (and (and (and (and (and (and (and (and (and (and (and (and (and (and (and (and (and (and (and (and (and (and (and (and (and (and (and (and (and (and (and (and (and (and (and (and (and (and (and (and (and (and (and (and (and (and (and (and (and (and (and (and (and (and (and (and (and (and (and (and (and (and (and (and (and (and (and (and (and (and (and (and (and (and (and (and (and (and (and (and (and (and (and (and (and (and (and (and (and (and (and (and (and (and (and (and (and (and (and (and (and (and (and (and (and (and (and (and (and (and (and (and (and (and (and (and (and (and (and (and (and (and (and (and (and (and (and (and (and (and (and (and (and (and (and (and (and (and (and (and (and (and (and (and (and (and (and (and (and (and (and (and (and (and (and (and (and (and (and (and (and (and (or (or ?v_54 P2) ?v_39) (or (or ?v_37 ?v_33) ?v_0)) (or (or ?v_8 ?v_121) ?v_12)) (or (or P39 ?v_65) ?v_115)) (or (or ?v_10 ?v_186) ?v_92)) (or (or ?v_2 P38) ?v_5)) (or (or P14 ?v_151) ?v_200)) (or (or ?v_44 P3) ?v_38)) (or (or ?v_11 ?v_1) ?v_60)) (or (or P9 ?v_40) P26)) (or (or ?v_1 ?v_19) ?v_2)) (or (or ?v_4 P2) ?v_131)) (or (or ?v_3 ?v_74) ?v_20)) (or (or ?v_50 ?v_48) ?v_4)) (or (or ?v_21 ?v_14) ?v_5)) (or (or ?v_27 ?v_109) ?v_72)) (or (or ?v_103 ?v_9) ?v_46)) (or (or ?v_8 ?v_24) ?v_9)) (or (or ?v_15 ?v_10) P20)) (or (or ?v_80 ?v_32) P23)) (or (or ?v_11 ?v_122) ?v_13)) (or (or ?v_5 P21) P8)) (or (or P23 ?v_112) P1)) (or (or ?v_35 ?v_87) ?v_13)) (or (or ?v_14 ?v_140) ?v_110)) (or (or ?v_145 P28) ?v_49)) (or (or ?v_100 ?v_98) ?v_15)) (or (or ?v_16 ?v_53) P22)) (or (or ?v_47 ?v_51) ?v_138)) (or (or ?v_88 ?v_85) ?v_116)) (or (or ?v_55 ?v_76) ?v_167)) (or (or ?v_133 ?v_19) ?v_26)) (or (or ?v_21 ?v_23) P1)) (or (or ?v_22 ?v_28) ?v_14)) (or (or P21 ?v_30) ?v_78)) (or (or ?v_23 ?v_169) ?v_19)) (or (or ?v_66 ?v_181) ?v_158)) (or (or ?v_105 ?v_26) ?v_62)) (or (or P14 ?v_11) ?v_107)) (or (or ?v_43 ?v_84) ?v_42)) (or (or ?v_29 P2) ?v_28)) (or (or ?v_29 ?v_19) ?v_165)) (or (or ?v_41 ?v_31) P38)) (or (or ?v_83 ?v_32) ?v_27)) (or (or ?v_70 ?v_34) ?v_35)) (or (or ?v_99 ?v_104) ?v_27)) (or (or P0 P4) ?v_38)) (or (or ?v_153 ?v_175) ?v_52)) (or (or ?v_40 ?v_41) ?v_155)) (or (or ?v_42 ?v_73) ?v_90)) (or (or ?v_95 ?v_43) ?v_58)) (or (or ?v_81 ?v_45) ?v_46)) (or (or P20 ?v_47) ?v_67)) (or (or ?v_59 ?v_150) ?v_49)) (or (or P9 ?v_63) ?v_51)) (or (or ?v_69 ?v_178) ?v_54)) (or (or ?v_55 ?v_91) ?v_28)) (or (or ?v_56 ?v_57) ?v_58)) (or (or ?v_55 ?v_26) P12)) (or (or ?v_130 ?v_184) ?v_120)) (or (or P20 (not ?v_94)) ?v_35)) (or (or ?v_59 ?v_60) ?v_101)) (or (or ?v_35 ?v_28) ?v_61)) (or (or P38 ?v_62) ?v_35)) (or (or ?v_124 ?v_63) ?v_68)) (or (or ?v_149 ?v_64) ?v_106)) (or (or ?v_134 ?v_65) ?v_32)) (or (or ?v_77 P17) ?v_67)) (or (or ?v_68 ?v_41) P21)) (or (or ?v_69 ?v_70) ?v_71)) (or (or ?v_189 P22) P18)) (or (or ?v_72 ?v_73) ?v_66)) (or (or ?v_190 P29) P31)) (or (or ?v_41 P16) ?v_58)) (or (or ?v_60 ?v_194) ?v_93)) (or (or ?v_26 ?v_15) ?v_79)) (or (or ?v_117 ?v_75) ?v_118)) (or (or ?v_76 P36) ?v_77)) (or (or ?v_8 P12) ?v_82)) (or (or ?v_89 ?v_79) ?v_26)) (or (or ?v_80 ?v_60) P27)) (or (or ?v_81 ?v_82) ?v_56)) (or (or ?v_83 ?v_5) ?v_84)) (or (or ?v_85 ?v_67) ?v_86)) (or (or ?v_82 ?v_51) ?v_132)) (or (or ?v_87 ?v_88) ?v_89)) (or (or ?v_44 ?v_72) P32)) (or (or ?v_108 ?v_22) ?v_91)) (or (or ?v_28 ?v_92) ?v_23)) (or (or P0 ?v_157) ?v_93)) (or (or ?v_1 ?v_68) ?v_51)) (or (or ?v_123 ?v_69) ?v_102)) (or (or ?v_16 ?v_94) ?v_95)) (or (or ?v_96 ?v_142) ?v_111)) (or (or ?v_5 ?v_97) ?v_98)) (or (or P37 ?v_126) ?v_99)) (or (or ?v_125 P30) ?v_100)) (or (or ?v_101 ?v_85) P19)) (or (or ?v_66 ?v_90) ?v_60)) (or (or P6 ?v_58) P39)) (or (or ?v_102 P11) ?v_101)) (or (or ?v_72 ?v_33) ?v_103)) (or (or ?v_104 P14) ?v_105)) (or (or ?v_91 P30) ?v_30)) (or (or ?v_106 ?v_59) P22)) (or (or ?v_107 ?v_53) ?v_86)) (or (or ?v_102 P19) ?v_69)) (or (or ?v_108 ?v_58) ?v_102)) (or (or ?v_137 ?v_84) ?v_26)) (or (or P20 ?v_177) ?v_5)) (or (or ?v_24 ?v_111) ?v_31)) (or (or ?v_160 ?v_94) ?v_146)) (or (or ?v_112 ?v_113) ?v_114)) (or (or ?v_173 ?v_33) ?v_42)) (or (or ?v_115 ?v_174) P4)) (or (or ?v_116 ?v_117) ?v_118)) (or (or ?v_163 ?v_77) ?v_49)) (or (or ?v_119 ?v_87) ?v_95)) (or (or P10 ?v_111) ?v_105)) (or (or ?v_129 P15) ?v_107)) (or (or ?v_85 ?v_120) ?v_121)) (or (or ?v_128 P26) ?v_22)) (or (or ?v_122 ?v_123) ?v_152)) (or (or ?v_124 ?v_50) ?v_92)) (or (or ?v_125 ?v_166) ?v_127)) (or (or ?v_48 ?v_88) ?v_76)) (or (or P8 P29) ?v_128)) (or (or ?v_20 P22) ?v_117)) (or (or ?v_84 ?v_141) ?v_168)) (or (or ?v_130 ?v_90) ?v_131)) (or (or P15 ?v_27) P33)) (or (or ?v_31 ?v_113) P3)) (or (or P28 ?v_143) ?v_132)) (or (or ?v_14 ?v_88) ?v_94)) (or (or ?v_55 ?v_21) ?v_133)) (or (or ?v_27 ?v_132) ?v_101)) (or (or ?v_135 ?v_58) ?v_134)) (or (or ?v_63 ?v_135) ?v_10)) (or (or ?v_35 ?v_86) ?v_191)) (or (or ?v_136 ?v_137) ?v_138)) (or (or ?v_139 ?v_121) ?v_140)) (or (or ?v_84 ?v_20) P16)) (or (or ?v_74 ?v_144) ?v_44)) (or (or ?v_140 ?v_97) ?v_141)) (or (or ?v_142 ?v_104) ?v_122)) (or (or ?v_143 ?v_112) ?v_65)) (or (or ?v_38 ?v_95) ?v_63)) (or (or ?v_45 ?v_41) P36)) (or (or ?v_121 ?v_85) ?v_2)) (or (or ?v_93 ?v_131) ?v_144)) (or (or P30 ?v_76) ?v_2)) (or (or ?v_126 ?v_54) ?v_94)) (or (or ?v_171 ?v_159) ?v_56)) (or (or ?v_3 ?v_90) ?v_13)) (or (or ?v_87 ?v_146) P16)) (or (or ?v_71 ?v_147) ?v_89)) (or (or ?v_31 ?v_117) ?v_47)) (or (or P24 ?v_39) ?v_38)) (or (or ?v_148 ?v_149) ?v_126)) (or (or ?v_150 ?v_107) ?v_5)) (or (or ?v_50 ?v_55) ?v_10)) (or (or ?v_88 ?v_34) ?v_127)) (or (or ?v_125 ?v_119) ?v_41)) (or (or ?v_161 ?v_47) ?v_49)) (or (or ?v_201 ?v_196) ?v_67)) (or (or ?v_69 ?v_33) ?v_103)) (or (or ?v_151 ?v_90) ?v_3)) (or (or ?v_80 ?v_94) ?v_124)) (or (or ?v_46 ?v_152) ?v_154)) (or (or P19 ?v_64) P3)) (or (or ?v_19 ?v_85) ?v_77)) (or (or P27 ?v_153) ?v_154)) (or (or ?v_28 ?v_77) P13)) (or (or ?v_155 ?v_78) ?v_86)) (or (or ?v_23 P37) ?v_10)) (or (or ?v_108 ?v_105) ?v_42)) (or (or P29 P11) ?v_77)) (or (or ?v_156 P26) ?v_149)) (or (or ?v_105 ?v_153) P29)) (or (or ?v_86 ?v_53) ?v_157)) (or (or ?v_99 P20) ?v_119)) (or (or P9 ?v_41) P25)) (or (or ?v_188 ?v_124) ?v_115)) (or (or P38 ?v_57) ?v_158)) (or (or ?v_134 ?v_110) ?v_159)) (or (or ?v_128 ?v_38) ?v_72)) (or (or ?v_150 P21) ?v_45)) (or (or ?v_35 ?v_42) ?v_29)) (or (or ?v_120 ?v_172) ?v_142)) (or (or ?v_5 ?v_152) ?v_77)) (or (or ?v_20 ?v_60) ?v_126)) (or (or ?v_37 ?v_27) ?v_141)) (or (or ?v_123 ?v_67) P11)) (or (or ?v_67 ?v_121) ?v_40)) (or (or ?v_160 ?v_145) ?v_158)) (or (or P20 ?v_134) ?v_30)) (or (or ?v_88 P31) P3)) (or (or P8 ?v_115) ?v_45)) (or (or ?v_111 ?v_104) ?v_39)) (or (or P15 ?v_118) ?v_116)) (or ?v_187 ?v_59)) (or (or ?v_84 ?v_79) ?v_161)) (or (or ?v_39 ?v_87) P36)) (or (or P25 ?v_79) ?v_70)) (or (or ?v_162 ?v_183) ?v_124)) (or (or P35 ?v_144) ?v_53)) (or (or ?v_164 ?v_165) ?v_128)) (or (or ?v_147 P9) ?v_1)) (or (or ?v_166 P33) ?v_31)) (or (or ?v_11 ?v_167) ?v_168)) (or (or ?v_118 ?v_60) P31)) (or (or ?v_132 ?v_169) ?v_74)) (or (or ?v_74 ?v_71) ?v_55)) (or (or ?v_170 ?v_147) ?v_30)) (or (or ?v_30 ?v_151) P7)) (or (or P33 ?v_149) ?v_171)) (or (or ?v_172 ?v_102) ?v_40)) (or (or ?v_38 ?v_104) ?v_108)) (or (or ?v_173 ?v_13) P31)) (or (or ?v_108 P7) ?v_99)) (or (or P37 ?v_30) ?v_42)) (or (or ?v_27 ?v_161) P34)) (or (or ?v_174 ?v_175) ?v_42)) (or (or P0 ?v_176) ?v_66)) (or (or P28 ?v_0) ?v_128)) (or (or ?v_91 ?v_55) ?v_37)) (or (or ?v_177 ?v_129) ?v_79)) (or (or ?v_101 ?v_38) ?v_100)) (or (or ?v_147 ?v_160) ?v_139)) (or (or P35 ?v_167) ?v_14)) (or (or ?v_115 ?v_72) ?v_111)) (or (or ?v_166 ?v_93) ?v_105)) (or (or ?v_105 ?v_15) ?v_16)) (or (or ?v_178 ?v_24) ?v_166)) (or (or ?v_22 ?v_65) ?v_30)) (or (or ?v_32 ?v_146) ?v_87)) (or (or ?v_113 P4) ?v_192)) (or (or ?v_58 ?v_98) ?v_28)) (or (or ?v_32 ?v_105) ?v_130)) (or (or ?v_50 ?v_152) ?v_140)) (or (or ?v_68 ?v_72) ?v_84)) (or (or ?v_28 ?v_41) ?v_144)) (or (or ?v_113 ?v_179) ?v_92)) (or (or ?v_13 ?v_148) ?v_141)) (or (or ?v_171 ?v_164) ?v_113)) (or (or ?v_178 ?v_160) ?v_165)) (or (or ?v_2 P18) ?v_154)) (or (or ?v_120 ?v_170) P1)) (or (or ?v_147 ?v_78) ?v_125)) (or (or ?v_98 ?v_182) ?v_125)) (or (or ?v_49 ?v_181) ?v_42)) (or (or ?v_182 ?v_136) ?v_116)) (or (or ?v_4 ?v_198) P24)) (or (or ?v_35 ?v_145) ?v_147)) (or (or ?v_183 ?v_13) ?v_143)) (or (or ?v_75 ?v_74) ?v_126)) (or (or ?v_63 ?v_49) ?v_27)) (or (or ?v_142 ?v_117) ?v_183)) (or (or ?v_5 P13) ?v_9)) (or (or ?v_53 ?v_129) ?v_79)) (or (or ?v_181 ?v_141) ?v_83)) (or (or P20 ?v_129) P30)) (or ?v_185 ?v_124)) (or (or ?v_183 ?v_170) ?v_53)) (or (or ?v_184 P22) ?v_34)) (or (or ?v_5 ?v_34) ?v_116)) (or (or ?v_111 ?v_138) ?v_122)) (or (or ?v_14 P29) P39)) (or ?v_185 ?v_67)) (or (or ?v_149 ?v_172) ?v_173)) (or (or ?v_8 P1) P32)) (or (or ?v_1 ?v_11) ?v_35)) (or (or P15 ?v_32) ?v_174)) (or (or ?v_11 ?v_118) ?v_167)) (or (or ?v_161 ?v_82) ?v_186)) (or (or P16 ?v_171) ?v_149)) (or (or ?v_71 ?v_86) ?v_171)) (or (or ?v_197 P36) ?v_76)) (or (or ?v_127 ?v_123) P9)) (or (or ?v_81 ?v_89) ?v_155)) (or (or ?v_159 ?v_97) P10)) (or ?v_187 P36)) (or (or P11 ?v_82) P15)) (or (or P13 ?v_106) ?v_62)) (or (or ?v_84 P26) ?v_188)) (or (or ?v_106 ?v_195) ?v_63)) (or (or ?v_29 P6) ?v_188)) (or (or ?v_19 P7) ?v_155)) (or (or ?v_2 ?v_35) ?v_48)) (or (or ?v_189 P38) ?v_116)) (or (or ?v_16 ?v_71) ?v_96)) (or (or ?v_93 ?v_74) ?v_83)) (or (or ?v_109 ?v_159) ?v_51)) (or (or ?v_108 ?v_54) ?v_55)) (or (or ?v_159 ?v_33) ?v_60)) (or (or ?v_74 ?v_190) ?v_124)) (or (or ?v_49 ?v_168) P22)) (or (or P38 ?v_42) ?v_76)) (or (or ?v_181 ?v_106) ?v_102)) (or (or ?v_32 ?v_191) P19)) (or (or ?v_51 ?v_90) ?v_95)) (or (or ?v_90 ?v_35) ?v_0)) (or (or P31 ?v_32) ?v_135)) (or (or ?v_56 ?v_98) P5)) (or (or ?v_32 ?v_37) P25)) (or (or ?v_48 ?v_90) ?v_181)) (or (or ?v_141 ?v_192) P8)) (or (or ?v_143 ?v_88) ?v_168)) (or (or ?v_76 ?v_193) ?v_194)) (or (or ?v_33 ?v_35) ?v_99)) (or (or ?v_89 ?v_81) ?v_139)) (or (or ?v_98 ?v_177) ?v_14)) (or (or ?v_109 P22) P23)) (or (or P14 ?v_14) P30)) (or (or ?v_192 P5) ?v_62)) (or (or ?v_123 ?v_170) ?v_26)) (or (or ?v_108 ?v_135) ?v_126)) (or (or P39 ?v_125) ?v_191)) (or (or ?v_69 ?v_69) ?v_131)) (or (or ?v_195 ?v_55) ?v_86)) (or (or ?v_101 P4) ?v_109)) (or (or ?v_83 ?v_86) ?v_120)) (or (or P11 P22) ?v_12)) (or (or ?v_120 ?v_182) (not P10))) (or (or ?v_80 ?v_69) ?v_176)) (or (or ?v_100 P38) ?v_140)) (or (or ?v_204 ?v_73) ?v_196)) (or (or ?v_182 ?v_142) ?v_99)) (or (or ?v_146 ?v_171) ?v_182)) (or (or ?v_92 ?v_88) ?v_49)) (or (or ?v_126 ?v_42) ?v_11)) (or (or ?v_69 P23) ?v_176)) (or (or ?v_8 ?v_94) ?v_78)) (or (or P38 ?v_103) ?v_111)) (or (or ?v_50 ?v_131) ?v_189)) (or (or P9 ?v_145) ?v_47)) (or (or ?v_119 ?v_64) ?v_102)) (or (or ?v_159 ?v_126) ?v_68)) (or (or ?v_60 ?v_111) ?v_76)) (or (or ?v_88 ?v_129) ?v_178)) (or (or P36 ?v_197) P12)) (or (or P1 ?v_51) ?v_64)) (or (or P27 P16) P3)) (or (or ?v_40 ?v_189) ?v_97)) (or (or ?v_199 ?v_12) ?v_198)) (or (or ?v_122 ?v_37) ?v_169)) (or (or ?v_15 ?v_60) ?v_0)) (or (or ?v_141 P28) ?v_119)) (or (or ?v_148 ?v_199) ?v_155)) (or (or ?v_38 ?v_12) ?v_23)) (or (or P33 P5) ?v_41)) (or (or ?v_54 ?v_124) ?v_101)) (or (or ?v_183 ?v_80) ?v_113)) (or (or P39 P20) ?v_59)) (or (or ?v_40 ?v_87) ?v_144)) (or (or ?v_166 ?v_0) ?v_69)) (or (or ?v_52 ?v_16) ?v_91)) (or (or P11 ?v_172) ?v_134)) (or (or ?v_63 ?v_1) P31)) (or (or ?v_164 ?v_81) ?v_125)) (or (or ?v_11 P36) P2)) (or (or ?v_52 P22) ?v_64)) (or (or ?v_23 ?v_149) ?v_88)) (or (or ?v_93 ?v_152) ?v_90)) (or (or ?v_16 ?v_153) ?v_181)) (or (or ?v_196 ?v_155) P21)) (or (or ?v_68 ?v_100) P0)) (or (or P11 (not ?v_189)) ?v_176)) (or (or ?v_121 ?v_151) ?v_52)) (or (or ?v_156 ?v_127) ?v_67)) (or (or ?v_177 P4) ?v_202)) (or (or P31 ?v_183) ?v_134)) (or (or ?v_126 ?v_30) ?v_86)) (or (or P17 ?v_189) ?v_2)) (or (or P17 P12) ?v_174)) (or (or ?v_200 ?v_106) ?v_39)) (or (or ?v_147 ?v_195) P29)) (or (or ?v_191 ?v_203) P2)) (or (or ?v_163 ?v_148) P10)) (or (or ?v_67 ?v_164) ?v_20)) (or (or ?v_76 ?v_155) ?v_29)) (or (or ?v_76 ?v_111) ?v_73)) (or (or ?v_4 P34) ?v_149)) (or (or ?v_143 P12) ?v_102)) (or (or P3 ?v_127) ?v_52)) (or (or ?v_70 ?v_163) ?v_19)) (or (or P23 ?v_61) ?v_19)) (or (or P25 ?v_88) ?v_50)) (or (or ?v_14 ?v_116) ?v_150)) (or (or P36 ?v_130) P29)) (or (or ?v_105 ?v_143) ?v_201)) (or (or P34 ?v_181) ?v_173)) (or (or P7 ?v_78) ?v_2)) (or (or ?v_62 ?v_20) P13)) (or (or P15 ?v_14) P33)) (or (or ?v_150 ?v_196) ?v_147)) (or (or ?v_201 ?v_158) ?v_63)) (or (or ?v_194 ?v_73) ?v_52)) (or (or P16 ?v_135) ?v_94)) (or (or ?v_134 ?v_66) ?v_56)) (or (or ?v_19 P14) P1)) (or (or ?v_0 ?v_120) ?v_15)) (or (or ?v_190 ?v_47) ?v_93)) (or (or ?v_133 ?v_2) P10)) (or (or ?v_149 ?v_195) ?v_89)) (or (or ?v_35 P2) ?v_51)) (or (or ?v_73 P15) ?v_2)) (or (or ?v_128 ?v_161) P29)) (or (or ?v_198 P15) P29)) (or (or ?v_84 ?v_58) ?v_98)) (or (or ?v_46 P36) ?v_152)) (or (or ?v_110 ?v_179) P35)) (or (or P24 ?v_61) P39)) (or (or ?v_39 ?v_164) ?v_202)) (or (or ?v_190 ?v_183) ?v_169)) (or (or ?v_21 ?v_100) ?v_194)) (or (or ?v_26 ?v_97) ?v_92)) (or (or P38 ?v_64) ?v_182)) (or (or ?v_58 ?v_126) ?v_92)) (or (or ?v_110 ?v_159) ?v_193)) (or (or P32 P16) ?v_177)) (or (or P24 ?v_181) ?v_65)) (or (or P10 ?v_146) P22)) (or (or ?v_75 ?v_96) ?v_40)) (or (or ?v_115 ?v_66) ?v_12)) (or (or ?v_76 ?v_203) ?v_47)) (or (or P6 P20) ?v_39)) (or (or ?v_62 ?v_145) ?v_135)) (or (or ?v_45 ?v_37) ?v_192)) (or (or P32 ?v_22) ?v_71)) (or (or P0 ?v_204) ?v_80)) (or (or ?v_133 ?v_157) ?v_136)) (or (or ?v_199 ?v_100) P39)) (or (or ?v_170 ?v_128) ?v_92)) (or (or ?v_114 ?v_55) ?v_160)) (or (or P25 ?v_191) ?v_163)) (or (or ?v_9 P16) ?v_192)) (or (or ?v_92 ?v_159) ?v_183)) (or (or ?v_171 ?v_167) P3)) (or (or ?v_3 ?v_181) ?v_202)) (or (or ?v_55 ?v_49) ?v_188)) (or (or ?v_104 ?v_68) ?v_5)) (or (or ?v_47 ?v_35) ?v_165)) (or (or ?v_100 ?v_49) ?v_149)) (or (or ?v_84 P28) ?v_186)) (or (or ?v_124 ?v_88) ?v_138)) (or (or ?v_174 ?v_100) P4)) (or (or ?v_72 ?v_193) ?v_83)) (or (or ?v_190 ?v_30) P17)) (or (or ?v_12 ?v_106) ?v_171)) (or (or ?v_179 ?v_54) P23)) (or (or ?v_119 ?v_200) ?v_9)) (or (or ?v_83 ?v_195) ?v_41)) (or (or ?v_27 ?v_41) ?v_190)) (or (or ?v_132 ?v_56) ?v_80)) (or (or ?v_191 ?v_68) ?v_5)) (or (or ?v_97 ?v_93) ?v_48)) (or (or ?v_136 ?v_126) ?v_123)) (or (or ?v_44 ?v_86) ?v_24)) (or (or P19 ?v_163) ?v_159)) (or (or ?v_35 ?v_73) ?v_201)) (or (or ?v_104 ?v_23) ?v_120)) (or (or ?v_144 ?v_99) ?v_202)) (or (or ?v_42 ?v_28) ?v_2)) (or (or ?v_87 ?v_66) ?v_122)) (or (or ?v_156 ?v_23) ?v_57)) (or (or ?v_54 ?v_123) P35)) (or (or ?v_155 P13) ?v_139)) (or (or P37 ?v_134) ?v_27)) (or (or ?v_139 ?v_72) P34)) (or (or ?v_202 P33) P19)) (or (or P33 ?v_66) ?v_104)) (or (or ?v_147 ?v_84) ?v_79)) (or (or ?v_189 ?v_47) ?v_173)) (or (or ?v_97 ?v_2) P7)) (or (or ?v_143 ?v_183) ?v_29)) (or (or ?v_45 P34) P25)) (or (or ?v_103 ?v_189) ?v_68)) (or (or ?v_179 ?v_165) ?v_97)) (or (or ?v_27 ?v_186) P7))))))))))))))))))))))))
(check-sat)
(exit)
